
Value of objective function: -8.13333

Actual values of the variables:
x1                        1.66667
x2                        3.33333
x3                              2
x4                              0
